
%FILE DATA:	Soccer Computational Problem for MiniZinc Models	%
%AUTHOR:	Jack Wall	%
%CONTACT:  	116397063@umail.ucc.ie			%
%LAST UPDATE:	02/19/2020, 12:16:33						%
%DESCRIPTION: 	60 games played with 30 games left				%


n=10; %number of teams

%Games to play
games=[|3,1|2,9|4,7|3,2|7,10|10,7|10,1|6,10|8,1|3,5|3,9|1,4|3,4|4,8|9,6|8,3|9,8|8,10|6,9|5,8|5,10|3,6|10,4|3,10|4,1|4,6|7,1|6,1|8,9|6,3|];

%Initial points
iPoints=[19,15,14,14,21,13,20,15,9,15];

%POSITION CONSTRAINTS
% [|teamID, operator, position|...]
% operators index:
%  1 for =  operator
%  2 for >  operator
%  3 for >= operator
%  4 for <  operator
%  5 for <= operator
positionConstraints=[|10,3,1|6,1,2|];